NAME: n20q45J.tsp, 20 nodes, semilla 999
COMMENT: Problema aleatorio de norma euclidea
DIMENSION: 20
CAPACITY: 45
EDGE_WEIGHT_TYPE: EUC_2D
NODE_COORD_SECTION
1   0.0000   0.0000
2 -258.0000 -199.0000
3 244.0000 486.0000
4 -59.0000 464.0000
5 -209.0000 245.0000
6 -191.0000 -274.0000
7  68.0000 436.0000
8 490.0000 -252.0000
9 -97.0000  72.0000
10 -32.0000 165.0000
11 -330.0000 146.0000
12 353.0000 302.0000
13 -362.0000 224.0000
14 -270.0000 -430.0000
15 414.0000 421.0000
16 -237.0000 -276.0000
17 106.0000   3.0000
18 360.0000 -189.0000
19 371.0000 269.0000
20 390.0000 421.0000
DISPLAY_DATA_SECTION:
 1  250  250
 2  121  150
 3  372  493
 4  220  482
 5  145  372
 6  154  113
 7  284  468
 8  495  124
 9  201  286
10  234  332
11   85  323
12  426  401
13   69  362
14  115   35
15  457  460
16  131  112
17  303  251
18  430  155
19  435  384
20  445  460
DEMAND_SECTION
1 0
2 -1
3 0
4 -2
5 -2
6 -8
7 7
8 1
9 -8
10 6
11 10
12 10
13 -4
14 -8
15 -9
16 7
17 -4
18 0
19 5
20 0
EOF